\* Improving_ex_post_stable_matchings *\
Minimize
OBJ: 1.2 w_0 + 1.3 w_1 + 1.4 w_2 + 1.2 w_3
Subject To
FOSD_0_0: w_0 + w_1 + w_2 + w_3 >= 1
FOSD_0_1: w_0 + w_1 + w_2 + w_3 >= 1
FOSD_0_2: w_0 + w_1 + w_2 + w_3 >= 1
FOSD_0_3: w_0 + w_1 + w_2 + w_3 >= 1
FOSD_1_0: w_0 + w_1 + w_2 + w_3 >= 1
FOSD_1_1: w_1 + w_2 >= 0.354
FOSD_1_2: w_0 + w_1 + w_2 + w_3 >= 1
FOSD_1_3: w_0 + w_1 + w_2 + w_3 >= 1
FOSD_2_0: w_0 + w_1 + w_2 + w_3 >= 1
FOSD_2_1: w_0 + w_1 + w_2 + w_3 >= 1
FOSD_2_2: w_0 + w_1 + w_2 + w_3 >= 1
FOSD_2_3: w_0 + w_1 + w_2 + w_3 >= 1
FOSD_3_0: w_0 + w_2 + w_3 >= 0.779
FOSD_3_1: w_0 >= 0.312
FOSD_3_2: w_0 + w_1 + w_2 + w_3 >= 1
FOSD_3_3: w_0 + w_1 + w_2 + w_3 >= 1
FOSD_4_0: w_0 + w_1 + w_2 + w_3 >= 1
FOSD_4_1: w_0 + w_1 + w_2 + w_3 >= 1
FOSD_4_2: w_0 + w_1 + w_2 + w_3 >= 1
FOSD_4_3: w_0 + w_1 + w_2 + w_3 >= 1
FOSD_5_0: w_0 + w_1 + w_2 + w_3 >= 1
FOSD_5_1: w_3 >= 0.334
FOSD_5_2: w_0 + w_1 + w_2 + w_3 >= 1
FOSD_5_3: w_0 + w_1 + w_2 + w_3 >= 1
FOSD_6_0: w_0 + w_1 + w_2 + w_3 >= 1
FOSD_6_1: w_0 + w_1 + w_2 + w_3 >= 1
FOSD_6_2: w_0 + w_1 + w_2 + w_3 >= 1
FOSD_6_3: w_0 + w_1 + w_2 + w_3 >= 1
FOSD_7_0: w_0 + w_1 + w_2 + w_3 >= 1
FOSD_7_1: w_0 + w_1 + w_2 + w_3 >= 1
FOSD_7_2: w_0 + w_1 + w_2 + w_3 >= 1
FOSD_7_3: w_0 + w_1 + w_2 + w_3 >= 1
FOSD_8_0: w_0 + w_1 + w_2 + w_3 >= 1
FOSD_8_1: w_0 + w_1 + w_2 + w_3 >= 1
FOSD_8_2: w_0 + w_1 + w_2 + w_3 >= 1
FOSD_8_3: w_0 + w_1 + w_2 + w_3 >= 1
FOSD_9_0: w_0 + w_1 + w_3 >= 0.867
FOSD_9_1: w_0 + w_1 + w_3 >= 0.867
FOSD_9_2: w_0 + w_1 + w_2 + w_3 >= 1
FOSD_9_3: w_0 + w_1 + w_2 + w_3 >= 1
Sum_to_one: w_0 + w_1 + w_2 + w_3 = 1
Bounds
 w_0 <= 1
 w_1 <= 1
 w_2 <= 1
 w_3 <= 1
End
